     Program PWSCF v.5.1rc2 starts on  4Feb2018 at 11: 5:24

     Current dimensions of program PWSCF are:
     Max number of different atomic species (ntypx) = 10
     Max number of k-points (npk) =  40000
     Max angular momentum in pseudopotentials (lmaxx) =  3
     Presently no symmetry can be used with electric field

     IMPORTANT: XC functional enforced from input :
     Exchange-correlation      = BEEF-VDW ( 1  4 27 13 2)
     Any further DFT definition will be discarded
     Please, verify this is what you really want

     Subspace diagonalization in iterative solution of the eigenvalue problem:
     a serial algorithm will be used

     Generating pointlists ...
     new r_m :   0.4125 (alat units)  0.7795 (a.u.) for type    1
     new r_m :   0.4125 (alat units)  0.7795 (a.u.) for type    2
     new r_m :   0.4125 (alat units)  0.7795 (a.u.) for type    3
  python dir          : /gpfs/pace1/project/chbe-medford/medford-share/gits/frozen/ben_espresso_8_24_2017/espresso
  espresso dir        : /nv/hp22/amedford6/medford-shared/builds/espresso/5.1.r11289-pybeef/intel-16.0+mvapich2-2.2+mkl-11.3/espresso-5.1.r11289-pybeef/bin
  pseudo dir          : /gpfs/pace1/project/chbe-medford/medford-share/data/pseudos/SSSP_eff_PBE
  ase-espresso py git : GITVERSION

     Program PWSCF v.5.1rc2 starts on  4Feb2018 at 11: 5:55

     Current dimensions of program PWSCF are:
     Max number of different atomic species (ntypx) = 10
     Max number of k-points (npk) =  40000
     Max angular momentum in pseudopotentials (lmaxx) =  3
     Presently no symmetry can be used with electric field

     IMPORTANT: XC functional enforced from input :
     Exchange-correlation      = BEEF-VDW ( 1  4 27 13 2)
     Any further DFT definition will be discarded
     Please, verify this is what you really want

     Subspace diagonalization in iterative solution of the eigenvalue problem:
     a serial algorithm will be used

     Generating pointlists ...
     new r_m :   0.4125 (alat units)  0.7795 (a.u.) for type    1
     new r_m :   0.4125 (alat units)  0.7795 (a.u.) for type    2
     new r_m :   0.4125 (alat units)  0.7795 (a.u.) for type    3

     bravais-lattice index     =            0
     lattice parameter (alat)  =       1.8897  a.u.
     unit-cell volume          =    6658.9804 (a.u.)^3
     number of atoms/cell      =           48
     number of atomic types    =            3
     number of electrons       =       384.00
     number of Kohn-Sham states=          202
     kinetic-energy cutoff     =      29.3995  Ry
     charge density cutoff     =     293.9946  Ry
     convergence threshold     =      7.3E-08
     mixing beta               =       0.0500
     number of iterations used =            8  plain     mixing
     Exchange-correlation      = BEEF-VDW ( 1  4 27 13 2)
     nstep                     =           50

     celldm(1)=   1.889726  celldm(2)=   0.000000  celldm(3)=   0.000000
     celldm(4)=   0.000000  celldm(5)=   0.000000  celldm(6)=   0.000000

     crystal axes: (cart. coord. in units of alat)
               a(1) = (   6.579727   0.000000   0.000000 )
               a(2) = (  -0.000775   5.961596   0.000000 )
               a(3) = (   0.000000   0.000000  25.155947 )

     reciprocal axes: (cart. coord. in units 2 pi/alat)
               b(1) = (  0.151982  0.000020  0.000000 )
               b(2) = (  0.000000  0.167740  0.000000 )
               b(3) = (  0.000000  0.000000  0.039752 )

     PseudoPot. # 1 for Ti read from file:
     /gpfs/pace1/project/chbe-medford/medford-share/data/pseudos/SSSP_eff_PBE/Ti.UPF
     MD5 check sum: 88a00a6731bd790ddea75d31a80cb452
     Pseudo is Ultrasoft + core correction, Zval = 12.0
     Generated by new atomic code, or converted to UPF format
     Using radial grid of  851 points,  6 beta functions with:
                l(1) =   0
                l(2) =   0
                l(3) =   1
                l(4) =   1
                l(5) =   2
                l(6) =   2
     Q(r) pseudized with  6 coefficients,  rinner =    1.000   1.000   1.000
                                                       1.000   1.000

     PseudoPot. # 2 for O  read from file:
     /gpfs/pace1/project/chbe-medford/medford-share/data/pseudos/SSSP_eff_PBE/O.UPF
     MD5 check sum: 734c27235a0248c51dbae37a1fbe46ec
     Pseudo is Ultrasoft + core correction, Zval =  6.0
     Generated by new atomic code, or converted to UPF format
     Using radial grid of  737 points,  5 beta functions with:
                l(1) =   0
                l(2) =   0
                l(3) =   1
                l(4) =   1
                l(5) =   2
     Q(r) pseudized with  8 coefficients,  rinner =    0.900   0.900   0.900
                                                       0.900   0.900

     PseudoPot. # 3 for O  read from file:
     /gpfs/pace1/project/chbe-medford/medford-share/data/pseudos/SSSP_eff_PBE/O.UPF
     MD5 check sum: 734c27235a0248c51dbae37a1fbe46ec
     Pseudo is Ultrasoft + core correction, Zval =  6.0
     Generated by new atomic code, or converted to UPF format
     Using radial grid of  737 points,  5 beta functions with:
                l(1) =   0
                l(2) =   0
                l(3) =   1
                l(4) =   1
                l(5) =   2
     Q(r) pseudized with  8 coefficients,  rinner =    0.900   0.900   0.900
                                                       0.900   0.900

     vdW kernel table read from file vdW_kernel_table
     MD5 check sum: 88c60d17101ec99b63477f765c8de84d

     atomic species   valence    mass     pseudopotential
        Ti1           12.00    47.86700     Ti( 1.00)
        O1             6.00    15.99900     O ( 1.00)
        O2             6.00    15.99900     O ( 1.00)

     Starting magnetic structure
     atomic species   magnetization
        Ti1          0.000
        O1           0.000
        O2           0.017

     No symmetry found

   Cartesian axes

     site n.     atom                  positions (alat units)
         1           Ti1 tau(   1) = (   0.0004258   2.9801865   6.0000000  )
         2           Ti1 tau(   2) = (   3.2906075   1.4906267   6.0002472  )
         3           O1  tau(   3) = (   0.0006271   0.0005054   7.9858123  )
         4           O1  tau(   4) = (   3.2906025   0.0005020   7.3038282  )
         5           O1  tau(   5) = (   4.5942328   1.4918067   9.2879030  )
         6           O1  tau(   6) = (   1.9868534   1.4903216   9.2879459  )
         7           Ti1 tau(   7) = (   3.2904475   2.9703585   9.1654631  )
         8           Ti1 tau(   8) = (   0.0008825   1.4908495   9.3857745  )
         9           O1  tau(   9) = (   3.2901053   0.0004349  11.3417729  )
        10           O1  tau(  10) = (   0.0007278   0.0005959  10.5671172  )
        11           O1  tau(  11) = (   1.2996080   1.4910596  12.6492414  )
        12           O1  tau(  12) = (   5.2786525   1.4909202  12.6486832  )
        13           Ti1 tau(  13) = (   0.0028492   2.9815775  12.8358882  )
        14           Ti1 tau(  14) = (   3.2942692   1.4908582  12.4920750  )
        15           O1  tau(  15) = (   0.0006634   0.0005720  14.6658802  )
        16           O1  tau(  16) = (   3.2899560   0.0004788  13.9247723  )
        17           O1  tau(  17) = (   4.5290407   1.4908939  16.0731822  )
        18           O1  tau(  18) = (   2.0516356   1.4907971  16.0734475  )
        19           Ti1 tau(  19) = (   3.2901416   2.9812968  15.7274477  )
        20           Ti1 tau(  20) = (   0.0005055   1.4908095  16.1822636  )
        21           O1  tau(  21) = (   3.2904802   0.0005063   4.7018136  )
        22           O1  tau(  22) = (   0.0006281   0.0005458  17.2442474  )
        23           O1  tau(  23) = (   1.3043587   1.4918075   6.0039043  )
        24           O1  tau(  24) = (   5.2767064   1.4903225   6.0039473  )
        25           Ti1 tau(  25) = (   0.0000382   5.9609847   6.0000000  )
        26           Ti1 tau(  26) = (   3.2902200   4.4714249   6.0002472  )
        27           O1  tau(  27) = (   0.0002396   2.9813036   7.9858123  )
        28           O1  tau(  28) = (   3.2902150   2.9813002   7.3038282  )
        29           O1  tau(  29) = (   4.5938453   4.4726049   9.2879030  )
        30           O1  tau(  30) = (   1.9864658   4.4711199   9.2879459  )
        31           Ti1 tau(  31) = (   3.2900599   5.9511568   9.1654669  )
        32           Ti1 tau(  32) = (   0.0004948   4.4716317   9.3857745  )
        33           O1  tau(  33) = (   3.2897177   2.9812333  11.3417678  )
        34           O1  tau(  34) = (   0.0003402   2.9813941  10.5671111  )
        35           O1  tau(  35) = (   1.2992204   4.4718476  12.6492415  )
        36           O1  tau(  36) = (   5.2782650   4.4717085  12.6486833  )
        37           Ti1 tau(  37) = (   0.0032367   0.0007790  12.8359536  )
        38           Ti1 tau(  38) = (   3.2938817   4.4716805  12.4920751  )
        39           O1  tau(  39) = (   0.0002757   2.9813702  14.6659401  )
        40           O1  tau(  40) = (   3.2895685   2.9812772  13.9247654  )
        41           O1  tau(  41) = (   4.5286531   4.4716739  16.0731822  )
        42           O1  tau(  42) = (   2.0512481   4.4715771  16.0734475  )
        43           Ti1 tau(  43) = (   3.2905290   0.0004983  15.7274369  )
        44           Ti1 tau(  44) = (   0.0001179   4.4718642  16.1822636  )
        45           O1  tau(  45) = (   3.2900926   2.9813045   4.7018136  )
        46           O1  tau(  46) = (   0.0002405   2.9813440  17.2443479  )
        47           O1  tau(  47) = (   1.3039711   4.4726057   6.0039043  )
        48           O2  tau(  48) = (   5.2763189   4.4711207   6.0039473  )

     number of k points=    20  Fermi-Dirac smearing, width (Ry)=  0.0073
                       cart. coord. in units 2pi/alat
        k(    1) = (   0.0000000   0.0000000   0.0000000), wk =   0.0625000
        k(    2) = (   0.0000000   0.0419351   0.0000000), wk =   0.1250000
        k(    3) = (   0.0000000  -0.0838702   0.0000000), wk =   0.0625000
        k(    4) = (   0.0379955   0.0000049   0.0000000), wk =   0.1250000
        k(    5) = (   0.0379955   0.0419400   0.0000000), wk =   0.1250000
        k(    6) = (   0.0379955  -0.0838652   0.0000000), wk =   0.1250000
        k(    7) = (   0.0379955  -0.0419301   0.0000000), wk =   0.1250000
        k(    8) = (  -0.0759910  -0.0000099   0.0000000), wk =   0.0625000
        k(    9) = (  -0.0759910   0.0419252   0.0000000), wk =   0.1250000
        k(   10) = (  -0.0759910  -0.0838800   0.0000000), wk =   0.0625000
        k(   11) = (   0.0000000   0.0000000   0.0000000), wk =   0.0625000
        k(   12) = (   0.0000000   0.0419351   0.0000000), wk =   0.1250000
        k(   13) = (   0.0000000  -0.0838702   0.0000000), wk =   0.0625000
        k(   14) = (   0.0379955   0.0000049   0.0000000), wk =   0.1250000
        k(   15) = (   0.0379955   0.0419400   0.0000000), wk =   0.1250000
        k(   16) = (   0.0379955  -0.0838652   0.0000000), wk =   0.1250000
        k(   17) = (   0.0379955  -0.0419301   0.0000000), wk =   0.1250000
[...]

[...]

     Adding external electric field

     Computed dipole along edir(3) :
        Dipole                0.0495 Ry au,          0.1258 Debye
        Dipole field          0.0001 Ry au

        Potential amp.       -0.0087 Ry
        Total length         46.3494 bohr

     Magnetic moment per site:
     atom:    1    charge:    3.1015    magn:   -0.0000    constr:    0.0000
     atom:    2    charge:    3.1025    magn:   -0.0000    constr:    0.0000
     atom:    3    charge:    2.0726    magn:    0.0000    constr:    0.0000
     atom:    4    charge:    2.0944    magn:    0.0000    constr:    0.0000
     atom:    5    charge:    2.0807    magn:    0.0000    constr:    0.0000
     atom:    6    charge:    2.0808    magn:    0.0000    constr:    0.0000
     atom:    7    charge:    3.0977    magn:   -0.0000    constr:    0.0000
     atom:    8    charge:    3.0983    magn:   -0.0000    constr:    0.0000
     atom:    9    charge:    2.0870    magn:    0.0000    constr:    0.0000
     atom:   10    charge:    2.0818    magn:    0.0000    constr:    0.0000
     atom:   11    charge:    2.0807    magn:   -0.0000    constr:    0.0000
     atom:   12    charge:    2.0807    magn:   -0.0000    constr:    0.0000
     atom:   13    charge:    3.0982    magn:    0.0000    constr:    0.0000
     atom:   14    charge:    3.0950    magn:   -0.0000    constr:    0.0000
     atom:   15    charge:    2.0803    magn:   -0.0000    constr:    0.0000
     atom:   16    charge:    2.0877    magn:    0.0000    constr:    0.0000
     atom:   17    charge:    2.0754    magn:   -0.0000    constr:    0.0000
     atom:   18    charge:    2.0753    magn:   -0.0000    constr:    0.0000
     atom:   19    charge:    3.1015    magn:    0.0000    constr:    0.0000
     atom:   20    charge:    3.1012    magn:    0.0000    constr:    0.0000
     atom:   21    charge:    2.0531    magn:    0.0001    constr:    0.0000
     atom:   22    charge:    2.0770    magn:    0.0000    constr:    0.0000
     atom:   23    charge:    2.0780    magn:    0.0000    constr:    0.0000
     atom:   24    charge:    2.0781    magn:    0.0000    constr:    0.0000
     atom:   25    charge:    3.1015    magn:   -0.0000    constr:    0.0000
     atom:   26    charge:    3.1025    magn:   -0.0000    constr:    0.0000
     atom:   27    charge:    2.0726    magn:    0.0000    constr:    0.0000
     atom:   28    charge:    2.0944    magn:    0.0000    constr:    0.0000
     atom:   29    charge:    2.0807    magn:    0.0000    constr:    0.0000
     atom:   30    charge:    2.0808    magn:    0.0000    constr:    0.0000
     atom:   31    charge:    3.0977    magn:   -0.0000    constr:    0.0000
     atom:   32    charge:    3.0983    magn:   -0.0000    constr:    0.0000
     atom:   33    charge:    2.0870    magn:    0.0000    constr:    0.0000
     atom:   34    charge:    2.0818    magn:    0.0000    constr:    0.0000
     atom:   35    charge:    2.0807    magn:   -0.0000    constr:    0.0000
     atom:   36    charge:    2.0807    magn:   -0.0000    constr:    0.0000
     atom:   37    charge:    3.0982    magn:    0.0000    constr:    0.0000
     atom:   38    charge:    3.0950    magn:   -0.0000    constr:    0.0000
     atom:   39    charge:    2.0803    magn:   -0.0000    constr:    0.0000
     atom:   40    charge:    2.0876    magn:    0.0000    constr:    0.0000
     atom:   41    charge:    2.0754    magn:   -0.0000    constr:    0.0000
     atom:   42    charge:    2.0753    magn:   -0.0000    constr:    0.0000
     atom:   43    charge:    3.1015    magn:    0.0000    constr:    0.0000
     atom:   44    charge:    3.1012    magn:   -0.0000    constr:    0.0000
     atom:   45    charge:    2.0531    magn:    0.0001    constr:    0.0000
     atom:   46    charge:    2.0770    magn:    0.0000    constr:    0.0000
     atom:   47    charge:    2.0780    magn:    0.0000    constr:    0.0000
     atom:   48    charge:    2.0781    magn:    0.0001    constr:    0.0000

     End of self-consistent calculation

 ------ SPIN UP ------------

          k = 0.0000 0.0000 0.0000 ( 18029 PWs)   bands (ev):

   -56.8936 -56.8595 -56.6684 -56.6321 -56.4580 -56.4228 -56.3676 -56.3333
   -56.2854 -56.2512 -56.1780 -56.1424 -56.0412 -56.0031 -55.7121 -55.6776
   -33.2706 -33.1530 -33.0863 -33.0585 -33.0346 -32.9428 -32.9101 -32.8980
   -32.8673 -32.8033 -32.7814 -32.7775 -32.7434 -32.7420 -32.7384 -32.7203
   -32.7185 -32.6363 -32.6221 -32.5636 -32.5597 -32.5405 -32.5349 -32.5053
   -32.4754 -32.4628 -32.4590 -32.4524 -32.4123 -32.4075 -32.3900 -32.3654
   -32.3469 -32.3190 -32.3104 -32.2789 -32.2543 -32.2263 -32.2229 -32.2047
   -32.1684 -32.0592 -32.0519 -31.9848 -31.9608 -31.8788 -31.7932 -31.6806
   -17.1931 -17.0127 -16.7574 -16.6241 -16.5054 -16.5017 -16.2162 -16.2131
   -16.1709 -16.0962 -16.0695 -15.9957 -15.9793 -15.9701 -15.9430 -15.8945
   -15.8810 -15.8355 -15.8197 -15.8162 -15.8119 -15.7360 -15.6521 -15.5729
   -15.5338 -15.4547 -15.4245 -15.3955 -15.2721 -15.2087 -14.1499 -14.0338
    -4.6379  -4.5765  -4.3771  -4.3654  -4.3010  -4.0608  -3.8884  -3.6931
    -3.6025  -3.5989  -3.5959  -3.5209  -3.5061  -3.3937  -3.3531  -3.3000
    -3.2819  -3.2789  -3.2672  -3.2636  -3.2409  -3.1813  -3.1114  -3.0783
    -3.0745  -3.0676  -2.9739  -2.8483  -2.8104  -2.7695  -2.7104  -2.6692
    -2.6445  -2.6188  -2.5876  -2.5652  -2.5264  -2.3652  -2.3123  -2.2900
    -2.2812  -2.2283  -2.1479  -1.9175  -1.9006  -1.8745  -1.8330  -1.8211
    -1.8072  -1.7000  -1.6836  -1.5930  -1.5462  -1.4705  -1.4144  -1.4010
    -1.3787  -1.3766  -1.3472  -1.2507  -1.2212  -1.1974  -1.0210  -0.9227
    -0.9111  -0.8782  -0.8578  -0.8575  -0.7883  -0.7336  -0.7064  -0.6719
    -0.6001  -0.5861  -0.4813  -0.4504  -0.4437  -0.4274  -0.4108  -0.3285
    -0.3079  -0.2728  -0.2584  -0.2038  -0.0282  -0.0221   0.0780   0.1426
     0.2401   0.2665   0.3174   0.3562   0.5247   0.6580   0.9198   1.0052
     2.3763   2.5705   2.6563   2.7392   2.8158   2.9106   3.0334   3.0838
     3.2487   3.2941

[...]

          k =-0.0760-0.0000 0.0000 ( 17886 PWs)   bands (ev):

[...]

 ------ SPIN DOWN ----------

[...]

          k = 0.0380-0.0419 0.0000 ( 17876 PWs)   bands (ev):

[...]

          k =-0.0760-0.0839 0.0000 ( 17948 PWs)   bands (ev):

   -56.8768 -56.8768 -56.6501 -56.6501 -56.4403 -56.4402 -56.3503 -56.3503
   -56.2683 -56.2681 -56.1601 -56.1601 -56.0221 -56.0221 -55.6952 -55.6951
   -33.0886 -33.0886 -33.0726 -33.0726 -32.9873 -32.9873 -32.9572 -32.9571
   -32.8560 -32.8560 -32.7588 -32.7588 -32.7314 -32.7313 -32.6713 -32.6713
   -32.6016 -32.6015 -32.5850 -32.5849 -32.5483 -32.5482 -32.5306 -32.5305
   -32.4988 -32.4988 -32.4463 -32.4461 -32.4334 -32.4332 -32.4191 -32.4190
   -32.3202 -32.3202 -32.3198 -32.3198 -32.2969 -32.2963 -32.2174 -32.2174
   -32.1936 -32.1935 -31.9744 -31.9744 -31.8738 -31.8738 -31.8366 -31.8366
   -16.6462 -16.6460 -16.4265 -16.4264 -16.3152 -16.3150 -16.3078 -16.3077
   -16.1620 -16.1618 -16.0684 -16.0684 -16.0358 -16.0356 -16.0231 -16.0230
   -15.9400 -15.9400 -15.8944 -15.8943 -15.8063 -15.8063 -15.6601 -15.6600
   -15.6185 -15.6179 -15.5594 -15.5593 -15.3833 -15.3812 -14.1358 -14.1358
    -3.9774  -3.9772  -3.6756  -3.6756  -3.4815  -3.4815  -3.4512  -3.4510
    -3.3612  -3.3612  -3.2880  -3.2877  -3.2683  -3.2683  -3.2480  -3.2480
    -3.2279  -3.2278  -3.1931  -3.1929  -3.1681  -3.1680  -3.0947  -3.0947
    -3.0528  -3.0528  -2.9833  -2.9833  -2.9573  -2.9571  -2.7754  -2.7754
    -2.6932  -2.6932  -2.5923  -2.5923  -2.5564  -2.5563  -2.4756  -2.4752
    -2.2739  -2.2739  -2.1684  -2.1684  -2.0142  -2.0137  -1.9788  -1.9788
    -1.8381  -1.8381  -1.7827  -1.7819  -1.6543  -1.6542  -1.6400  -1.6398
    -1.6329  -1.6328  -1.4972  -1.4970  -1.3802  -1.3801  -1.3512  -1.3511
    -1.3300  -1.3297  -1.1483  -1.1482  -1.1321  -1.1318  -0.9942  -0.9941
    -0.9338  -0.9336  -0.6523  -0.6512  -0.6010  -0.6009  -0.2558  -0.2557
    -0.2506  -0.2492  -0.1044  -0.1042  -0.1000  -0.0998   0.0348   0.0348
     0.0747   0.0750   0.1890   0.1891   0.7080   0.7080   0.7798   0.7798
     2.8734   2.8735   2.8919   2.8920   2.9192   2.9192   2.9870   2.9870
     3.2637   3.2638

     the Fermi energy is     1.7370 ev

!    total energy              =   -2966.86615506 Ry
     Harris-Foulkes estimate   =   -2966.86602782 Ry
     estimated scf accuracy    <       0.00000004 Ry

     The total energy is the sum of the following terms:

     one-electron contribution =  -24931.47301086 Ry
     hartree contribution      =   12548.85090191 Ry
     xc contribution           =    -543.29525450 Ry
     ewald contribution        =    9959.05129490 Ry
     electric field correction =       0.00000462 Ry
     smearing contrib. (-TS)   =      -0.00009113 Ry

     total magnetization       =     0.00 Bohr mag/cell
     absolute magnetization    =     0.00 Bohr mag/cell

     convergence has been achieved in  42 iterations

 BEEFens 2000 ensemble energies
             -0.380523509628361E+02
             -0.250503675594966E+01
             -0.835594618855888E+01
              0.277659158545634E+02
             -0.129641407523751E+02
             -0.109275276418660E+02
             -0.265518248805150E+02
             -0.576886412278127E+02
             -0.243481588534502E+02
             -0.262142610538066E+02
             -0.237809575498917E+02
              0.332308106369678E+01
              0.201518501005063E+01
             -0.788358841072068E+00
              0.210895146374426E+01
              0.298329062903552E+02
             -0.120047660901477E+02
             -0.895557944740240E+01
              0.123824622121385E+02
             -0.690849247915518E+02
              0.361208738287242E+02
             -0.145112446001493E+02
             -0.337202097898213E+01
             -0.641645568258876E+01
             -0.116654642537486E+01
             -0.335177998896111E+01
              0.540292493932879E+02
             -0.143669230226621E+02
             -0.507189936514573E+01
             -0.340233442286235E+02
              0.451772843313078E+02
             -0.574842113485153E+01
             -0.245291003618157E+02
              0.133671833825950E+02
             -0.198511442322567E+01
              0.149812955548542E+02
             -0.594104742882848E+00
              0.188481500719794E+01
              0.202042192954277E+02
             -0.623451898569226E+02
              0.339578858795585E+02
              0.829839288815084E+01
             -0.542746586711877E+01
             -0.201746892324135E+02
              0.736788108182878E+01
             -0.112140428050387E+02
              0.290217804836154E+02
              0.221784831050767E+02
             -0.145770385746790E+02
             -0.191260379318708E+02
             -0.187882931663628E+02
             -0.220954296341980E+02
              0.101242357969177E+02
             -0.315695528902793E+02
              0.919051735265055E+01
              0.377448191945603E+02
              0.446971368965786E+02
              0.205006378765462E+02
              0.100075520710123E+02
              0.189945743294178E+02
[...]
             -0.455834265341762E+02
              0.171928181456917E+01
             -0.403794647968883E+00
             -0.632479907008110E+01
              0.128938606904524E+01
             -0.409422062306431E+02
             -0.864779141727196E+01
              0.577353145643062E+01
              0.692365131510425E+01
              0.307735872297780E+02
             -0.255950028455241E+02
              0.351723767871946E+02
             -0.247873663230197E+02
              0.154584690487083E+02
              0.254103943931175E+02

 BEEF-vdW xc energy contributions
           1 :   -463.918837061567
           2 :    407.978097467835
           3 :   -316.501998090044
           4 :    218.576534090768
           5 :   -137.719078123236
           6 :    83.7658472302289
           7 :   -53.5439500062400
           8 :    37.3624547953698
           9 :   -26.0569186986574
          10 :    14.8028932145770
          11 :   -3.00914960315725
          12 :   -8.01766731549532
          13 :    17.2394222914120
          14 :   -24.5730090244467
          15 :    30.4292511937415
          16 :   -35.0659042505322
          17 :    38.3286117420592
          18 :   -39.8199225282371
          19 :    39.2267750439587
          20 :   -36.5525515105903
          21 :    32.1382849918042
          22 :   -26.5371373151045
          23 :    20.3771997019398
          24 :   -14.2421307795861
          25 :    8.53751445015661
          26 :   -3.40340825872539
          27 :   -1.24993878468388
          28 :    5.58815602859681
          29 :   -9.67934787945097
          30 :    13.4103093930758
          31 :   -51.6066371514779
          32 :   -35.0491962896448

     Forces acting on atoms (Ry/au):

     negative rho (up, down):  1.165E-02 1.165E-02
     atom    1 type  1   force =     0.00008251   -0.00008542    0.14880020
     atom    2 type  1   force =    -0.00008873   -0.00008105   -0.17066885
     atom    3 type  2   force =     0.00004554    0.00001116   -0.05971971
     atom    4 type  2   force =     0.00001304   -0.00011416    0.04105010
     atom    5 type  2   force =    -0.02721061   -0.00002700    0.00398194
     atom    6 type  2   force =     0.02711799    0.00048430    0.00391752
     atom    7 type  1   force =    -0.00002042   -0.00041094    0.00026360
     atom    8 type  1   force =     0.00000618   -0.00004449    0.00067545
     atom    9 type  2   force =    -0.00002647    0.00000148    0.00051657
     atom   10 type  2   force =    -0.00001409   -0.00000249   -0.00071831
     atom   11 type  2   force =     0.00030677   -0.00000938   -0.00104817
     atom   12 type  2   force =    -0.00052659   -0.00000399   -0.00108196
     atom   13 type  1   force =     0.00024938   -0.00000351   -0.00039775
     atom   14 type  1   force =     0.00021670    0.00002128   -0.00045656
     atom   15 type  2   force =    -0.00002030    0.00000317   -0.00005071
     atom   16 type  2   force =    -0.00003069    0.00000455    0.00107938
     atom   17 type  2   force =     0.00053115    0.00000085    0.00039078
     atom   18 type  2   force =    -0.00054438   -0.00000268    0.00040111
     atom   19 type  1   force =    -0.00003870    0.00000164    0.00009708
     atom   20 type  1   force =    -0.00000445    0.00027820   -0.00014341
     atom   21 type  2   force =     0.00005877    0.00006201    0.10071174
     atom   22 type  2   force =    -0.00001494   -0.00000138    0.00122515
     atom   23 type  2   force =    -0.07217561   -0.00016094   -0.03428483
     atom   24 type  2   force =     0.07208750    0.00030202   -0.03432642
     atom   25 type  1   force =     0.00008253   -0.00008543    0.14880436
     atom   26 type  1   force =    -0.00008862   -0.00008049   -0.17066885
     atom   27 type  2   force =     0.00004553    0.00001120   -0.05971762
     atom   28 type  2   force =     0.00001304   -0.00011419    0.04104772
     atom   29 type  2   force =    -0.02721062   -0.00002684    0.00398193
     atom   30 type  2   force =     0.02711800    0.00048447    0.00391750
     atom   31 type  1   force =    -0.00002041   -0.00041105    0.00025602
     atom   32 type  1   force =     0.00000621   -0.00001038    0.00067541
     atom   33 type  2   force =    -0.00002641    0.00000148    0.00052690
     atom   34 type  2   force =    -0.00001408   -0.00000245   -0.00070569
     atom   35 type  2   force =     0.00030680    0.00001201   -0.00104820
     atom   36 type  2   force =    -0.00052662    0.00001706   -0.00108200
     atom   37 type  1   force =     0.00024967   -0.00000305   -0.00053932
     atom   38 type  1   force =     0.00021667   -0.00002761   -0.00045658
     atom   39 type  2   force =    -0.00002016    0.00000324   -0.00017748
     atom   40 type  2   force =    -0.00003066    0.00000452    0.00109295
     atom   41 type  2   force =     0.00053126    0.00003977    0.00039082
     atom   42 type  2   force =    -0.00054444    0.00003622    0.00040115
     atom   43 type  1   force =    -0.00003870    0.00000195    0.00011859
     atom   44 type  1   force =    -0.00000433   -0.00027236   -0.00014344
     atom   45 type  2   force =     0.00005877    0.00006197    0.10071186
     atom   46 type  2   force =    -0.00001493   -0.00000128    0.00101181
     atom   47 type  2   force =    -0.07217575   -0.00016248   -0.03428487
     atom   48 type  3   force =     0.07208770    0.00030047   -0.03432691

     Total force =     0.402342     Total SCF correction =     0.000398
 !ASE

     Writing output data file calc.save

     General routines

     Parallel routines

   This run was terminated on:  11:52:17   4Feb2018

   JOB DONE.