     Program PWSCF v.5.1rc2 starts on  4Feb2018 at 14:41:29

     Current dimensions of program PWSCF are:
     Max number of different atomic species (ntypx) = 10
     Max number of k-points (npk) =  40000
     Max angular momentum in pseudopotentials (lmaxx) =  3
     Presently no symmetry can be used with electric field

     IMPORTANT: XC functional enforced from input :
     Exchange-correlation      = BEEF-VDW ( 1  4 27 13 2)
     Any further DFT definition will be discarded
     Please, verify this is what you really want

     Subspace diagonalization in iterative solution of the eigenvalue problem:
     a serial algorithm will be used

     Generating pointlists ...
     new r_m :   0.4125 (alat units)  0.7795 (a.u.) for type    1
     new r_m :   0.4125 (alat units)  0.7795 (a.u.) for type    2
     new r_m :   0.4125 (alat units)  0.7795 (a.u.) for type    3
     new r_m :   0.4125 (alat units)  0.7795 (a.u.) for type    4

     bravais-lattice index     =            0
     lattice parameter (alat)  =       1.8897  a.u.
     unit-cell volume          =    6658.9804 (a.u.)^3
     number of atoms/cell      =           50
     number of atomic types    =            4
     number of electrons       =       394.00
     number of Kohn-Sham states=          207
     kinetic-energy cutoff     =      29.3995  Ry
     charge density cutoff     =     293.9946  Ry
     convergence threshold     =      7.3E-08
     mixing beta               =       0.0500
     number of iterations used =            8  plain     mixing
     Exchange-correlation      = BEEF-VDW ( 1  4 27 13 2)
     nstep                     =           50

     celldm(1)=   1.889726  celldm(2)=   0.000000  celldm(3)=   0.000000
     celldm(4)=   0.000000  celldm(5)=   0.000000  celldm(6)=   0.000000

     crystal axes: (cart. coord. in units of alat)
               a(1) = (   6.579727   0.000000   0.000000 )
               a(2) = (  -0.000775   5.961596   0.000000 )
               a(3) = (   0.000000   0.000000  25.155947 )

     reciprocal axes: (cart. coord. in units 2 pi/alat)
               b(1) = (  0.151982  0.000020  0.000000 )
               b(2) = (  0.000000  0.167740  0.000000 )
               b(3) = (  0.000000  0.000000  0.039752 )

     PseudoPot. # 1 for Ti read from file:
     /gpfs/pace1/project/chbe-medford/medford-share/data/pseudos/SSSP_eff_PBE/Ti.UPF
     MD5 check sum: 88a00a6731bd790ddea75d31a80cb452
     Pseudo is Ultrasoft + core correction, Zval = 12.0
     Generated by new atomic code, or converted to UPF format
     Using radial grid of  851 points,  6 beta functions with:
                l(1) =   0
                l(2) =   0
                l(3) =   1
                l(4) =   1
                l(5) =   2
                l(6) =   2
     Q(r) pseudized with  6 coefficients,  rinner =    1.000   1.000   1.000
                                                       1.000   1.000

     PseudoPot. # 2 for O  read from file:
     /gpfs/pace1/project/chbe-medford/medford-share/data/pseudos/SSSP_eff_PBE/O.UPF
     MD5 check sum: 734c27235a0248c51dbae37a1fbe46ec
     Pseudo is Ultrasoft + core correction, Zval =  6.0
     Generated by new atomic code, or converted to UPF format
     Using radial grid of  737 points,  5 beta functions with:
                l(1) =   0
                l(2) =   0
                l(3) =   1
                l(4) =   1
                l(5) =   2
     Q(r) pseudized with  8 coefficients,  rinner =    0.900   0.900   0.900
                                                       0.900   0.900

     PseudoPot. # 3 for  N read from file:
     /gpfs/pace1/project/chbe-medford/medford-share/data/pseudos/SSSP_eff_PBE/N.UPF
     MD5 check sum: 1fde47ee573fe9ed3106b9b4217eb757
     Pseudo is Ultrasoft + core correction, Zval =  5.0
     Generated using "atomic" code by A. Dal Corso  v.5.1
     Using radial grid of 1085 points,  4 beta functions with:
                l(1) =   0
                l(2) =   0
                l(3) =   1
                l(4) =   1
     Q(r) pseudized with 0 coefficients

     PseudoPot. # 4 for  N read from file:
     /gpfs/pace1/project/chbe-medford/medford-share/data/pseudos/SSSP_eff_PBE/N.UPF
     MD5 check sum: 1fde47ee573fe9ed3106b9b4217eb757
     Pseudo is Ultrasoft + core correction, Zval =  5.0
     Generated using "atomic" code by A. Dal Corso  v.5.1
     Using radial grid of 1085 points,  4 beta functions with:
                l(1) =   0
                l(2) =   0
                l(3) =   1
                l(4) =   1
     Q(r) pseudized with 0 coefficients

     vdW kernel table read from file vdW_kernel_table
     MD5 check sum: 88c60d17101ec99b63477f765c8de84d

     atomic species   valence    mass     pseudopotential
        Ti1           12.00    47.86700     Ti( 1.00)
        O1             6.00    15.99900     O ( 1.00)
        N1             5.00    14.00700      N( 1.00)
        N2             5.00    14.00700      N( 1.00)

     Starting magnetic structure
     atomic species   magnetization
        Ti1          0.000
        O1           0.000
        N1           0.000
        N2           0.020

     No symmetry found

   Cartesian axes

     site n.     atom                  positions (alat units)
         1           Ti1 tau(   1) = (   0.0004258   2.9801865   6.0000000  )
         2           Ti1 tau(   2) = (   3.2906075   1.4906267   6.0002472  )
         3           O1  tau(   3) = (   0.0006271   0.0005054   7.9858123  )
         4           O1  tau(   4) = (   3.2906025   0.0005020   7.3038282  )
         5           O1  tau(   5) = (   4.5942328   1.4918067   9.2879030  )
         6           O1  tau(   6) = (   1.9868534   1.4903216   9.2879459  )
         7           Ti1 tau(   7) = (   3.2908567   2.9645546   9.1668691  )
         8           Ti1 tau(   8) = (   0.0014339   1.4909274   9.3851580  )
         9           O1  tau(   9) = (   3.2877030   0.0008576  11.3472349  )
        10           O1  tau(  10) = (   0.0014746   0.0007646  10.5668687  )
        11           O1  tau(  11) = (   1.2959634   1.4923133  12.6510834  )
        12           O1  tau(  12) = (   5.2784491   1.4913965  12.6474455  )
        13           Ti1 tau(  13) = (   0.0022471   2.9824501  12.8368376  )
        14           Ti1 tau(  14) = (   3.2943261   1.4933855  12.5001830  )
        15           O1  tau(  15) = (   6.5769495   0.0006347  14.6669616  )
        16           O1  tau(  16) = (   3.2877269   0.0006899  13.9223953  )
        17           O1  tau(  17) = (   4.5299256   1.4813584  16.0705288  )
        18           O1  tau(  18) = (   2.0420557   1.4834167  16.0693347  )
        19           Ti1 tau(  19) = (   3.2874157   2.9816287  15.7605934  )
        20           Ti1 tau(  20) = (   6.5739391   1.4910946  16.1802624  )
        21           O1  tau(  21) = (   3.2904802   0.0005063   4.7018136  )
        22           O1  tau(  22) = (   6.5774950   0.0016844  17.2512770  )
        23           O1  tau(  23) = (   1.3043587   1.4918075   6.0039043  )
        24           O1  tau(  24) = (   5.2767064   1.4903225   6.0039473  )
        25           Ti1 tau(  25) = (   0.0000382   5.9609847   6.0000000  )
        26           Ti1 tau(  26) = (   3.2902200   4.4714249   6.0002472  )
        27           O1  tau(  27) = (   0.0002396   2.9813036   7.9858123  )
        28           O1  tau(  28) = (   3.2902150   2.9813002   7.3038282  )
        29           O1  tau(  29) = (   4.5938453   4.4726049   9.2879030  )
        30           O1  tau(  30) = (   1.9864658   4.4711199   9.2879459  )
        31           Ti1 tau(  31) = (   3.2903144   5.9453154   9.1676577  )
        32           Ti1 tau(  32) = (   0.0010438   4.4716374   9.3851509  )
        33           O1  tau(  33) = (   3.2876715   2.9813990  11.3493084  )
        34           O1  tau(  34) = (   0.0006077   2.9815001  10.5660994  )
        35           O1  tau(  35) = (   1.2955437   4.4714632  12.6506814  )
        36           O1  tau(  36) = (   5.2780891   4.4721096  12.6470212  )
        37           Ti1 tau(  37) = (   0.0024872   0.0015542  12.8342709  )
        38           Ti1 tau(  38) = (   3.2939538   4.4699068  12.5000469  )
        39           O1  tau(  39) = (   6.5748649   2.9819133  14.6698328  )
        40           O1  tau(  40) = (   3.2891736   2.9819321  13.9460428  )
        41           O1  tau(  41) = (   4.5294256   4.4825850  16.0712589  )
        42           O1  tau(  42) = (   2.0418094   4.4802762  16.0701524  )
        43           Ti1 tau(  43) = (   3.2831387   0.0008272  15.7202797  )
        44           Ti1 tau(  44) = (   6.5735353   4.4746085  16.1804017  )
        45           O1  tau(  45) = (   3.2900926   2.9813045   4.7018136  )
        46           O1  tau(  46) = (   6.5744342   2.9822063  17.2503093  )
        47           O1  tau(  47) = (   1.3039711   4.4726057   6.0039043  )
        48           O1  tau(  48) = (   5.2763189   4.4711207   6.0039473  )
        49           N1  tau(  49) = (   3.1889267   3.0014917  19.6531967  )
        50           N2  tau(  50) = (   3.2706996   2.9842052  18.5462167  )

     number of k points=    20  Fermi-Dirac smearing, width (Ry)=  0.0073
                       cart. coord. in units 2pi/alat
        k(    1) = (   0.0000000   0.0000000   0.0000000), wk =   0.0625000
        k(    2) = (   0.0000000   0.0419351   0.0000000), wk =   0.1250000
        k(    3) = (   0.0000000  -0.0838702   0.0000000), wk =   0.0625000
        k(    4) = (   0.0379955   0.0000049   0.0000000), wk =   0.1250000
        k(    5) = (   0.0379955   0.0419400   0.0000000), wk =   0.1250000
        k(    6) = (   0.0379955  -0.0838652   0.0000000), wk =   0.1250000
        k(    7) = (   0.0379955  -0.0419301   0.0000000), wk =   0.1250000
        k(    8) = (  -0.0759910  -0.0000099   0.0000000), wk =   0.0625000
        k(    9) = (  -0.0759910   0.0419252   0.0000000), wk =   0.1250000
        k(   10) = (  -0.0759910  -0.0838800   0.0000000), wk =   0.0625000
        k(   11) = (   0.0000000   0.0000000   0.0000000), wk =   0.0625000
        k(   12) = (   0.0000000   0.0419351   0.0000000), wk =   0.1250000
        k(   13) = (   0.0000000  -0.0838702   0.0000000), wk =   0.0625000
        k(   14) = (   0.0379955   0.0000049   0.0000000), wk =   0.1250000
        k(   15) = (   0.0379955   0.0419400   0.0000000), wk =   0.1250000
        k(   16) = (   0.0379955  -0.0838652   0.0000000), wk =   0.1250000
        k(   17) = (   0.0379955  -0.0419301   0.0000000), wk =   0.1250000
        k(   18) = (  -0.0759910  -0.0000099   0.0000000), wk =   0.0625000
        k(   19) = (  -0.0759910   0.0419252   0.0000000), wk =   0.1250000
        k(   20) = (  -0.0759910  -0.0838800   0.0000000), wk =   0.0625000

     Largest allocated arrays     est. size (Mb)     dimensions
     Largest temporary arrays     est. size (Mb)     dimensions

     Check: negative/imaginary core charge=   -0.000006    0.000000

     Initial potential from superposition of free atoms
     Check: negative starting charge=(component1):   -0.012615
     Check: negative starting charge=(component2):   -0.012615

[...]
     atom:    2    charge:    3.1025    magn:   -0.0001    constr:    0.0000
     atom:    3    charge:    2.0726    magn:    0.0000    constr:    0.0000
     atom:    4    charge:    2.0941    magn:    0.0000    constr:    0.0000
     atom:    5    charge:    2.0807    magn:   -0.0000    constr:    0.0000
     atom:    6    charge:    2.0808    magn:   -0.0000    constr:    0.0000
     atom:    7    charge:    3.0951    magn:   -0.0000    constr:    0.0000
     atom:    8    charge:    3.0984    magn:   -0.0000    constr:    0.0000
     atom:    9    charge:    2.0861    magn:    0.0000    constr:    0.0000
     atom:   10    charge:    2.0818    magn:   -0.0000    constr:    0.0000
     atom:   11    charge:    2.0805    magn:    0.0000    constr:    0.0000
     atom:   12    charge:    2.0806    magn:    0.0000    constr:    0.0000
     atom:   13    charge:    3.0981    magn:   -0.0000    constr:    0.0000
     atom:   14    charge:    3.0970    magn:   -0.0000    constr:    0.0000
     atom:   15    charge:    2.0801    magn:   -0.0000    constr:    0.0000
     atom:   16    charge:    2.0892    magn:   -0.0000    constr:    0.0000
     atom:   17    charge:    2.0778    magn:   -0.0000    constr:    0.0000
     atom:   18    charge:    2.0770    magn:   -0.0000    constr:    0.0000
     atom:   19    charge:    3.0994    magn:    0.0000    constr:    0.0000
     atom:   20    charge:    3.1004    magn:    0.0000    constr:    0.0000
     atom:   21    charge:    2.0531    magn:    0.0002    constr:    0.0000
     atom:   22    charge:    2.0778    magn:   -0.0000    constr:    0.0000
     atom:   23    charge:    2.0780    magn:    0.0000    constr:    0.0000
     atom:   24    charge:    2.0781    magn:    0.0000    constr:    0.0000
     atom:   25    charge:    3.1015    magn:   -0.0000    constr:    0.0000
     atom:   26    charge:    3.1025    magn:   -0.0001    constr:    0.0000
     atom:   27    charge:    2.0726    magn:    0.0000    constr:    0.0000
     atom:   28    charge:    2.0942    magn:    0.0000    constr:    0.0000
     atom:   29    charge:    2.0807    magn:   -0.0000    constr:    0.0000
     atom:   30    charge:    2.0808    magn:   -0.0000    constr:    0.0000
     atom:   31    charge:    3.0948    magn:   -0.0000    constr:    0.0000
     atom:   32    charge:    3.0984    magn:   -0.0000    constr:    0.0000
     atom:   33    charge:    2.0868    magn:    0.0000    constr:    0.0000
     atom:   34    charge:    2.0819    magn:    0.0000    constr:    0.0000
     atom:   35    charge:    2.0804    magn:    0.0000    constr:    0.0000
     atom:   36    charge:    2.0805    magn:    0.0000    constr:    0.0000
     atom:   37    charge:    3.0985    magn:   -0.0000    constr:    0.0000
     atom:   38    charge:    3.0969    magn:   -0.0000    constr:    0.0000
     atom:   39    charge:    2.0795    magn:   -0.0000    constr:    0.0000
     atom:   40    charge:    2.0861    magn:   -0.0000    constr:    0.0000
     atom:   41    charge:    2.0790    magn:   -0.0000    constr:    0.0000
     atom:   42    charge:    2.0774    magn:   -0.0000    constr:    0.0000
     atom:   43    charge:    3.1023    magn:    0.0000    constr:    0.0000
     atom:   44    charge:    3.1000    magn:    0.0000    constr:    0.0000
     atom:   45    charge:    2.0531    magn:    0.0001    constr:    0.0000
     atom:   46    charge:    2.0775    magn:   -0.0000    constr:    0.0000
     atom:   47    charge:    2.0780    magn:    0.0000    constr:    0.0000
     atom:   48    charge:    2.0781    magn:    0.0000    constr:    0.0000
     atom:   49    charge:    1.2719    magn:   -0.0002    constr:    0.0000
     atom:   50    charge:    1.2810    magn:    0.0002    constr:    0.0000

     End of self-consistent calculation

 ------ SPIN UP ------------

          k = 0.0000 0.0000 0.0000 ( 18029 PWs)   bands (ev):

   -56.5699 -56.5358 -56.3407 -56.3045 -56.1796 -56.0906 -56.0481 -56.0138
   -55.9712 -55.9370 -55.8567 -55.8211 -55.7558 -55.7180 -55.3850 -55.3505
   -32.9466 -32.8225 -32.7628 -32.7350 -32.7107 -32.6190 -32.5813 -32.5740
   -32.5656 -32.4759 -32.4569 -32.4561 -32.4436 -32.4126 -32.4123 -32.4043
   -32.3919 -32.3452 -32.3009 -32.2421 -32.2402 -32.2208 -32.2141 -32.2132
   -32.1689 -32.1481 -32.1444 -32.1331 -32.0984 -32.0881 -32.0756 -32.0445
   -32.0318 -31.9979 -31.9892 -31.9653 -31.9576 -31.9392 -31.9185 -31.9016
   -31.8806 -31.7668 -31.7321 -31.6578 -31.6338 -31.5515 -31.4658 -31.3535
   -21.0011 -16.8604 -16.6876 -16.4464 -16.3050 -16.1909 -16.1469 -15.8915
   -15.8868 -15.8312 -15.7715 -15.7329 -15.6830 -15.6511 -15.6448 -15.6409
   -15.5788 -15.5720 -15.5158 -15.4991 -15.4970 -15.4872 -15.4156 -15.3448
   -15.2657 -15.2182 -15.1344 -15.1058 -15.0760 -14.9726 -14.9209 -13.8233
   -13.7074  -6.5668  -4.3103  -4.2463  -4.2424  -4.2129  -4.0794  -4.0474
    -3.9776  -3.7173  -3.5702  -3.3634  -3.3139  -3.2811  -3.2552  -3.2414
    -3.2002  -3.1755  -3.0617  -3.0312  -2.9720  -2.9561  -2.9507  -2.9474
    -2.9384  -2.9204  -2.8432  -2.7861  -2.7696  -2.7654  -2.7430  -2.6375
    -2.5292  -2.4847  -2.4707  -2.3825  -2.3567  -2.3291  -2.3072  -2.2699
    -2.2416  -2.2076  -2.0435  -1.9916  -1.9588  -1.9144  -1.9077  -1.8231
    -1.5949  -1.5771  -1.5454  -1.5320  -1.5065  -1.5029  -1.3863  -1.3767
    -1.2262  -1.1458  -1.1271  -1.0905  -1.0826  -1.0594  -1.0424  -1.0009
    -0.9278  -0.9024  -0.8933  -0.7059  -0.6069  -0.5934  -0.5573  -0.5351
    -0.5267  -0.4679  -0.4114  -0.3752  -0.3748  -0.2782  -0.2642  -0.1943
    -0.1723  -0.1282  -0.1086  -0.0959  -0.0070   0.0181   0.0428   0.0629
     0.1119   0.2941   0.2982   0.4007   0.4630   0.5445   0.5930   0.6439
     0.6733   0.8529   0.9772   1.2457   1.3300   2.7007   2.8931   2.9783
     3.0613   3.1119   3.2342   3.3370   3.3580   3.3820   3.5684

[...]

          k =-0.0760-0.0000 0.0000 ( 17886 PWs)   bands (ev):

[...]

 ------ SPIN DOWN ----------

[...]

          k = 0.0380-0.0419 0.0000 ( 17876 PWs)   bands (ev):

[...]

          k =-0.0760-0.0839 0.0000 ( 17948 PWs)   bands (ev):

   -56.5531 -56.5530 -56.3228 -56.3222 -56.1759 -56.0941 -56.0319 -56.0298
   -55.9544 -55.9536 -55.8390 -55.8386 -55.7371 -55.7364 -55.3681 -55.3681
   -32.7646 -32.7646 -32.7491 -32.7490 -32.6634 -32.6634 -32.6308 -32.6238
   -32.5281 -32.5275 -32.4355 -32.4335 -32.4330 -32.4184 -32.3790 -32.3347
   -32.3190 -32.2828 -32.2814 -32.2395 -32.2285 -32.2247 -32.2161 -32.2152
   -32.1802 -32.1786 -32.1303 -32.1295 -32.1194 -32.1186 -32.0995 -32.0993
   -32.0093 -32.0067 -31.9992 -31.9988 -31.9986 -31.9983 -31.9314 -31.9305
   -31.9065 -31.9055 -31.6475 -31.6475 -31.5469 -31.5468 -31.5094 -31.5094
   -21.0001 -16.3283 -16.2885 -16.1015 -16.0800 -15.9850 -15.9841 -15.9838
   -15.9808 -15.8481 -15.8466 -15.7586 -15.7470 -15.7297 -15.7277 -15.6958
   -15.6949 -15.6272 -15.6267 -15.5738 -15.5700 -15.4848 -15.4831 -15.3428
   -15.3424 -15.3057 -15.3036 -15.2409 -15.2406 -15.0964 -15.0913 -13.8093
   -13.8091  -6.5661  -4.2517  -4.2057  -3.6621  -3.6191  -3.3484  -3.3270
    -3.2628  -3.1539  -3.1504  -3.1371  -3.1328  -3.0494  -3.0171  -2.9726
    -2.9689  -2.9419  -2.9322  -2.9249  -2.9237  -2.9034  -2.8953  -2.8809
    -2.8794  -2.8538  -2.8470  -2.7636  -2.7552  -2.7338  -2.7315  -2.6611
    -2.6575  -2.6550  -2.6377  -2.4507  -2.4502  -2.3757  -2.3730  -2.2697
    -2.2687  -2.2331  -2.2328  -2.1649  -2.1399  -1.9512  -1.9461  -1.8486
    -1.8368  -1.7049  -1.7034  -1.6845  -1.6260  -1.5171  -1.4843  -1.4689
    -1.4680  -1.3307  -1.3286  -1.3285  -1.3205  -1.3060  -1.3027  -1.1984
    -1.1649  -1.0603  -1.0530  -1.0497  -1.0342  -1.0085  -0.9765  -0.8270
    -0.8270  -0.8086  -0.8083  -0.6779  -0.6750  -0.6239  -0.6200  -0.3519
    -0.3403  -0.2755  -0.2750   0.0527   0.0591   0.0592   0.0690   0.2025
     0.2197   0.2214   0.2300   0.3563   0.3593   0.3943   0.3954   0.5076
     0.5095   1.0341   1.0350   1.1056   1.1058   3.1906   3.2051   3.2082
     3.2186   3.2415   3.2453   3.3086   3.3104   3.5722   3.5899

     the Fermi energy is     2.0612 ev

!    total energy              =   -3007.64286785 Ry
     Harris-Foulkes estimate   =   -3007.64258436 Ry
     estimated scf accuracy    <       0.00000006 Ry

     The total energy is the sum of the following terms:

     one-electron contribution =  -24081.29617629 Ry
     hartree contribution      =   12131.71811673 Ry
     xc contribution           =    -554.27124059 Ry
     ewald contribution        =    9496.20644835 Ry
     electric field correction =       0.00007629 Ry
     smearing contrib. (-TS)   =      -0.00009233 Ry

     total magnetization       =     0.00 Bohr mag/cell
     absolute magnetization    =     0.00 Bohr mag/cell

     convergence has been achieved in  51 iterations

 BEEFens 2000 ensemble energies
             -0.388286167571799E+02
             -0.253192233565964E+01
             -0.852276747423827E+01
              0.283172907947873E+02
             -0.132277344907310E+02
             -0.111436763496461E+02
             -0.271222158597889E+02
             -0.588695811259863E+02
             -0.248224682435624E+02
             -0.267299585826424E+02
             -0.242173315979132E+02
              0.337173480302351E+01
              0.204291741252726E+01
             -0.799810145297684E+00
              0.215878152309165E+01
              0.304125495404008E+02
             -0.122789579768261E+02
             -0.912984666248299E+01
              0.126323414226042E+02
             -0.704696782563610E+02
              0.368191631514391E+02
             -0.147705500767224E+02
             -0.345566883169514E+01
             -0.654334898368685E+01
             -0.116333339389212E+01
             -0.343013186777495E+01
              0.551345891668025E+02
             -0.146154290328360E+02
             -0.519044117465000E+01
             -0.346995910404191E+02
              0.460827466418446E+02
             -0.585552612158938E+01
             -0.250407530454487E+02
              0.136179372763831E+02
             -0.202345352775012E+01
              0.152829905719520E+02
             -0.599761607165107E+00
              0.191856505236419E+01
              0.206120371632595E+02
             -0.636157042102933E+02
              0.346577303290171E+02
              0.844593399813526E+01
             -0.553617063296264E+01
             -0.205637862581398E+02
              0.751416490122278E+01
             -0.114234659993306E+02
              0.296226945325051E+02
              0.226162647506898E+02
             -0.148559901618659E+02
             -0.194941252409498E+02
             -0.191522683053200E+02
             -0.225439375735207E+02
              0.103491416581484E+02
             -0.322238589172562E+02
              0.938509367526717E+01
              0.384927578591592E+02
              0.455862654086550E+02
              0.209139052702541E+02
              0.102364641330329E+02
              0.193791447335676E+02
[...]
             -0.465010885391527E+02
              0.176815175684976E+01
             -0.383413685949550E+00
             -0.645422045740315E+01
              0.130823172193607E+01
             -0.417617402276956E+02
             -0.881042291275021E+01
              0.591929797692489E+01
              0.706142382150082E+01
              0.313942008482717E+02
             -0.261047748917222E+02
              0.358864615102655E+02
             -0.252857695060008E+02
              0.157764461201536E+02
              0.259283661803739E+02

 BEEF-vdW xc energy contributions
           1 :   -473.088928173815
           2 :    415.781109069028
           3 :   -322.309525208903
           4 :    222.506969514656
           5 :   -140.226328482531
           6 :    85.3150893676705
           7 :   -54.4861589682048
           8 :    37.9177149471253
           9 :   -26.3238735610446
          10 :    14.8189956408711
          11 :   -2.83438899838859
          12 :   -8.29134671112570
          13 :    17.5280395993802
          14 :   -24.8198830193373
          15 :    30.6071255831732
          16 :   -35.1740357857891
          17 :    38.3854452161460
          18 :   -39.8437330008001
          19 :    39.2231139511562
          20 :   -36.5227120813282
          21 :    32.0888329594756
          22 :   -26.4815004856574
          23 :    20.3284526823772
          24 :   -14.2067986201467
          25 :    8.51935174934459
          26 :   -3.40551757816138
          27 :   -1.22429762594038
          28 :    5.53400210531186
          29 :   -9.59277013484666
          30 :    13.2885661731492
          31 :   -52.7996896920133
          32 :   -35.8384465922055

     Forces acting on atoms (Ry/au):

     negative rho (up, down):  1.141E-02 1.141E-02
     atom    1 type  1   force =     0.00009367   -0.00010107    0.14851531
     atom    2 type  1   force =    -0.00008381   -0.00032400   -0.17034742
     atom    3 type  2   force =     0.00004380    0.00004008   -0.05966279
     atom    4 type  2   force =     0.00001947   -0.00018903    0.04199812
     atom    5 type  2   force =    -0.02736456    0.00026193    0.00437914
     atom    6 type  2   force =     0.02730871    0.00081587    0.00412648
     atom    7 type  1   force =    -0.00007077   -0.00062261   -0.00076761
     atom    8 type  1   force =     0.00003628   -0.00000802    0.00074227
     atom    9 type  2   force =     0.00007066   -0.00004018    0.00086365
     atom   10 type  2   force =    -0.00013987   -0.00001793   -0.00036209
     atom   11 type  2   force =     0.00082132    0.00009014   -0.00060166
     atom   12 type  2   force =    -0.00121608    0.00014505   -0.00051738
     atom   13 type  1   force =     0.00030436   -0.00006657   -0.00029715
     atom   14 type  1   force =     0.00030495   -0.00037876   -0.00038849
     atom   15 type  2   force =    -0.00004850    0.00002145    0.00045242
     atom   16 type  2   force =    -0.00012373   -0.00000323   -0.00045639
     atom   17 type  2   force =    -0.00039860    0.00028934   -0.00036125
     atom   18 type  2   force =     0.00033344    0.00019160   -0.00024073
     atom   19 type  1   force =     0.00020209   -0.00004871   -0.00097789
     atom   20 type  1   force =    -0.00000848   -0.00003060   -0.00068424
     atom   21 type  2   force =     0.00006705    0.00005046    0.10064691
     atom   22 type  2   force =    -0.00005042   -0.00006645    0.00047567
     atom   23 type  2   force =    -0.07228857   -0.00014002   -0.03428971
     atom   24 type  2   force =     0.07221200    0.00032324   -0.03432898
     atom   25 type  1   force =     0.00009055   -0.00010242    0.14853738
     atom   26 type  1   force =    -0.00008379    0.00012394   -0.17035013
     atom   27 type  2   force =     0.00005829    0.00005881   -0.05972596
     atom   28 type  2   force =     0.00002487   -0.00019403    0.04219156
     atom   29 type  2   force =    -0.02735625   -0.00003996    0.00439438
     atom   30 type  2   force =     0.02729844    0.00044504    0.00414314
     atom   31 type  1   force =    -0.00007145   -0.00054250   -0.00003453
     atom   32 type  1   force =     0.00003399   -0.00008143    0.00074909
     atom   33 type  2   force =     0.00000072    0.00002146   -0.00010808
     atom   34 type  2   force =    -0.00008906    0.00000512   -0.00022071
     atom   35 type  2   force =     0.00084012   -0.00010198   -0.00056697
     atom   36 type  2   force =    -0.00123399   -0.00015316   -0.00047774
     atom   37 type  1   force =     0.00032608    0.00001921   -0.00061625
     atom   38 type  1   force =     0.00030353    0.00034795   -0.00040227
     atom   39 type  2   force =     0.00004747    0.00001552   -0.00000650
     atom   40 type  2   force =    -0.00015696   -0.00000994    0.00138810
     atom   41 type  2   force =    -0.00035033   -0.00027900   -0.00038821
     atom   42 type  2   force =     0.00028028   -0.00016935   -0.00027614
     atom   43 type  1   force =     0.00018238    0.00011134    0.00085499
     atom   44 type  1   force =    -0.00000534    0.00001529   -0.00067639
     atom   45 type  2   force =     0.00006598    0.00005123    0.10067921
     atom   46 type  2   force =     0.00018484    0.00004385    0.00065277
     atom   47 type  2   force =    -0.07228820   -0.00016180   -0.03428856
     atom   48 type  2   force =     0.07221145    0.00030000   -0.03432910
     atom   49 type  3   force =     0.00026688   -0.00004433    0.00188309
     atom   50 type  4   force =    -0.00060490    0.00012915   -0.00092236

     Total force =     0.402204     Total SCF correction =     0.000434
 !ASE

     Writing output data file calc.save

     General routines

     Parallel routines

   This run was terminated on:  15:51:27   4Feb2018

   JOB DONE.